c 2022-11-30 14:00:33 by qbfdd.py,v 1.2.2
c qbfdd.py /tmp/test.cnf /home/lagniez/Works/Softs/d4/build/d4_debug -m erosion -i -m ddmin -g b -qS
c 
c mode: ddmin
c rounds: 2
c test runs: 1226
c time elapsed: 53.40s
c total: clauses  : -33 (63.46%)
c        variables: -0 (0.00%)
c        literals : -110 (65.48%)
c 
p cnf 32 19
-4 -9 11 0
-3 -9 11 0
-3 -4 11 0
-3 -4 -9 0
-3 9 -11 0
-2 -3 -11 0
-2 -3 9 0
1 -3 -11 0
1 -3 9 0
1 -2 9 0
3 4 -6 0
2 3 -6 0
2 3 4 0
-1 3 -6 0
-1 2 4 0
-1 2 3 0
-2 3 6 0
3 -4 -11 0
2 3 -4 5 0
